20	5
0	4	3	11	1	2
1	1	18
2	0
3	1	10
4	1	15
5	1	17
6	2	15	20
7	1	9
8	1	13
9	1	5
10	1	19
11	1	4
12	1	6
13	1	7
14	1	12
15	0
16	1	8
17	1	10
18	0
19	1	21
20	1	21
21	0
0	0	0	0	0	0	0
1	4	0	0	2	0	0
2	7	2	2	0	1	5
3	6	3	1	0	4	0
4	4	0	4	0	2	0
5	8	0	4	4	0	0
6	1	5	3	2	2	2
7	7	0	0	0	1	0
8	5	0	0	0	0	4
9	7	0	5	3	5	5
10	5	0	5	0	4	0
11	10	4	5	0	4	0
12	2	0	0	0	0	2
13	8	1	0	5	5	1
14	10	5	5	0	1	1
15	3	5	0	5	4	0
16	9	0	0	4	0	0
17	8	0	0	2	0	0
18	8	3	3	1	4	2
19	7	0	0	0	0	4
20	8	0	0	5	0	3
21	0	0	0	0	0	0
7	7	6	6	5
